c preprocessed version of eil76.tsp, 75 vertices, 213 edges
p td 75 213
0 1
0 63
0 18
0 62
0 17
0 13
0 19
0 12
2 1
4 1
1 3
1 18
1 63
2 3
2 58
2 59
2 63
2 60
4 3
3 70
5 4
4 70
4 71
4 18
4 6
5 6
5 18
5 17
5 13
5 15
7 6
69 6
71 6
6 15
7 8
7 69
7 15
7 16
9 8
69 8
16 8
8 70
10 9
40 9
9 16
9 38
9 39
9 42
10 11
10 14
10 16
10 32
10 35
10 38
12 11
14 11
32 11
13 11
12 13
12 19
12 34
12 33
12 32
14 13
13 17
13 15
14 15
14 16
16 15
18 17
20 19
62 19
19 34
20 21
20 62
20 34
20 28
20 27
20 29
22 21
61 21
62 21
21 28
23 22
55 22
22 61
22 28
24 23
23 55
23 64
23 28
23 53
25 24
24 26
24 28
24 53
24 52
24 51
25 26
25 29
25 51
25 30
25 68
25 47
27 26
26 28
26 29
27 28
27 29
30 29
29 34
29 33
31 30
32 30
30 33
30 47
31 32
31 35
31 47
31 46
31 45
32 33
32 35
34 33
36 35
37 35
46 35
35 38
36 37
36 46
36 39
36 41
36 43
37 38
37 39
38 39
40 39
41 39
40 41
40 42
41 42
41 43
43 42
44 43
43 46
43 67
43 66
44 45
44 47
44 48
44 46
44 67
46 45
47 45
48 47
68 47
49 48
48 68
48 67
49 50
49 68
49 67
49 65
49 66
50 51
50 52
50 68
50 65
52 51
51 68
52 53
52 65
54 53
53 64
53 65
55 54
54 57
54 64
54 65
56 55
55 57
55 64
55 61
56 57
56 59
56 60
56 61
58 57
57 59
58 59
59 60
61 60
62 60
60 63
61 62
62 63
65 66
67 66
69 70
69 71
71 70
72 2
72 3
72 58
72 73
72 70
73 74
73 57
73 58
74 72
74 54
74 57
74 65
